&CONTROL
    calculation='vc-relax'
    prefix='Mn'
    restart_mode = 'from_scratch'
    verbosity='high'
    nstep=1000
    outdir='./tmp'
    pseudo_dir='./'
    forc_conv_thr=1.0d-5
    etot_conv_thr=1.0d-6

/
&SYSTEM
    ibrav=0 !Damos la geometria en CELL_PARAMETERS
    nat = 33 !Número de atomos
    ntyp = 4 !Número de los tipos de átomos 
    ecutwfc = 60.0 !La energia cinética de corte para las ondas planas
    occupations = 'smearing'
    smearing = 'gauss'
    degauss = 0.002
    nbnd=95 !Es la mitad de electrones más 20%
    nspin=2
    starting_magnetization(4) = 0.5
    !------ input_dft='pbe0' !Añadimos la parte híbrida al cálculo
    !------ nqx1 = 1, nqx2= 1, nqx3 = 1 !El grid de la parte híbrida
    nosym=.true. !Sin simetría para no tener problemas en la zona de Brillouin
    vdw_corr='dft-d3' !Añadimos correcciones de Fuerzas Débiles
    dftd3_version=6 

/
&ELECTRONS
    mixing_beta = 0.7 !Es default
    conv_thr =  1.0d-8 !El default es 1.0d-6
    electron_maxstep= 500 !El normal es 100, pero le ponemos hasta 500
    mixing_mode = 'plain' !Default ya que no sabemos si es homogeneo o inhomogeneo el sistema
/
&IONS

/
&CELL
cell_dofree='2Dxy'

/
CELL_PARAMETERS angstrom
    10.6773   0.00000   0.00000
    0.00000   10.6773   0.00000
    0.00000   0.00000   14.0000
ATOMIC_SPECIES
N  14.0100000 N.pbe-n-rrkjus_psl.1.0.0.UPF !Pseudos tipo PAW US
C  12.8100000 C.pbe-n-rrkjus_psl.1.0.0.UPF
H   1.0079700 H.pbe-rrkjus_psl.1.0.0.UPF
Mn 54.9380440 Mn.pbe-spn-rrkjus_psl.0.3.1.UPF

ATOMIC_POSITIONS angstrom
!Aquí van tus átomos con sus respectivas coordenadas

K_POINTS (automatic)
4 4 2 0 0 0
 
